fcc:                                    
   3.52284377630020     
0.595388 0.344252 0.000000 
0.000000 0.344252 0.595388 
0.595388 0.000000 0.595388 
   Ni
     1
Direct
  0.0000000000000000  0.0000000000000000  0.0000000000000000
 
  0.00000000E+00  0.00000000E+00  0.00000000E+00
