ISTART  = 0
ISPIN   = 2
MAGMOM  = 4*1.0
ISMEAR  = 0
VOSKOWN = 1
LORBIT  = 11
IBRION =2
NSW = 100
