fcc:                             
1.0000
3.505800 0.000000 0.000000 
0.000000 3.505800 0.000000 
0.000000 0.000000 3.505800 
   4  
direct
0 0 0
0.5 0.5 0.0
0.5 0.0 0.5
0.0 0.5 0.5
